instances/shortest_path/discrete/shortest_path_2_18.kp
44889
14

[3.3732234134146344 2.3234933502035444]

[9 14]
